p cnf 10 20
-9 -6 -8 0
1 -6 -3 0
-5 -1 2 0
-6 -3 -10 0
8 4 -10 0
-1 -9 -2 0
-10 5 9 0
7 -3 -4 0
9 2 5 0
4 -8 -2 0
-3 9 8 0
-2 4 -9 0
-4 3 -1 0
1 -4 -10 0
5 6 -1 0
-9 10 -3 0
-1 3 7 0
-10 6 -4 0
1 -9 4 0
-3 -1 2 0
